p wcnf 161 80 81 
1 -149 -54 0 
1 23 -30 0 
1 -35 -108 0 
1 -86 84 0 
1 40 120 0 
1 127 105 0 
1 54 110 0 
1 74 -33 0 
1 -50 -56 0 
1 143 -117 0 
1 -29 -62 0 
1 125 19 0 
1 -2 12 0 
1 20 89 0 
1 -110 -130 0 
1 -78 21 0 
1 -131 67 0 
1 -57 -48 0 
1 130 -124 0 
1 145 114 0 
1 60 -7 0 
1 -103 -37 0 
1 -143 46 0 
1 -127 92 0 
1 -23 -5 0 
1 -65 -115 0 
1 19 23 0 
1 105 1 0 
1 87 7 0 
1 -148 -88 0 
1 -42 -38 0 
1 -68 -151 0 
1 -9 17 0 
1 5 135 0 
1 -99 -24 0 
1 -90 -8 0 
1 19 3 0 
1 -148 90 0 
1 70 49 0 
1 -7 107 0 
1 -18 161 0 
1 107 -18 0 
1 -95 146 0 
1 -76 -91 0 
1 52 92 0 
1 -118 31 0 
1 -29 -91 0 
1 -43 48 0 
1 128 135 0 
1 32 -25 0 
1 68 -96 0 
1 42 18 0 
1 -93 24 0 
1 93 -47 0 
1 -76 -16 0 
1 -74 -122 0 
1 85 26 0 
1 -91 17 0 
1 28 -128 0 
1 -70 -52 0 
1 146 -120 0 
1 -103 45 0 
1 69 -88 0 
1 91 77 0 
1 151 40 0 
1 155 31 0 
1 154 -110 0 
1 -82 -62 0 
1 42 94 0 
1 73 155 0 
1 -64 85 0 
1 -13 135 0 
1 -89 50 0 
1 9 -134 0 
1 -43 104 0 
1 -91 -65 0 
1 -107 119 0 
1 87 31 0 
1 -48 161 0 
1 -34 -109 0 
